c THIS FORMULA IS GENERATED BY CNF
c 
c atomics
c C_2_2:1
c X_PI <= 42.09_2_p:2
c C_2_1:3
c X_GS <= 37.89_1_p:4
c X_PI <= 42.09_1_s:5
c X_PI <= 42.09_1_n:6
c X_GS <= 37.89_1_s:7
c X_GS <= 37.89_1_n:8
c X_PI <= 42.09_2_n:9
c X_GS <= 37.89_2_p:10
c C_1_2:11
c X_PI <= 42.09_1_p:12
c X_PI <= 48.12_2_s:13
c X_PI <= 48.12_2_p:14
c X_PI <= 48.12_1_p:15
c C_1_1:16
c X_PI <= 48.12_1_s:17
c X_GS <= 37.89_2_s:18
c X_PI <= 48.12_1_n:19
c X_PI <= 42.09_2_s:20
c X_GS <= 37.89_2_n:21
c X_PI <= 48.12_2_n:22
c end atomics
p cnf 22 179
12 -12 -12 0
12 -12 -6 0
12 -12 5 0
12 6 -12 0
12 6 -6 0
12 6 5 0
12 -5 -12 0
12 -5 -6 0
12 -5 5 0
-6 -12 -12 0
-6 -12 -6 0
-6 -12 5 0
-6 6 -12 0
-6 6 -6 0
-6 6 5 0
-6 -5 -12 0
-6 -5 -6 0
-6 -5 5 0
-5 -12 -12 0
-5 -12 -6 0
-5 -12 5 0
-5 6 -12 0
-5 6 -6 0
-5 6 5 0
-5 -5 -12 0
-5 -5 -6 0
-5 -5 5 0
15 -15 -15 0
15 -15 -19 0
15 -15 17 0
15 19 -15 0
15 19 -19 0
15 19 17 0
15 -17 -15 0
15 -17 -19 0
15 -17 17 0
-19 -15 -15 0
-19 -15 -19 0
-19 -15 17 0
-19 19 -15 0
-19 19 -19 0
-19 19 17 0
-19 -17 -15 0
-19 -17 -19 0
-19 -17 17 0
-17 -15 -15 0
-17 -15 -19 0
-17 -15 17 0
-17 19 -15 0
-17 19 -19 0
-17 19 17 0
-17 -17 -15 0
-17 -17 -19 0
-17 -17 17 0
4 -4 -4 0
4 -4 -8 0
4 -4 7 0
4 8 -4 0
4 8 -8 0
4 8 7 0
4 -7 -4 0
4 -7 -8 0
4 -7 7 0
-8 -4 -4 0
-8 -4 -8 0
-8 -4 7 0
-8 8 -4 0
-8 8 -8 0
-8 8 7 0
-8 -7 -4 0
-8 -7 -8 0
-8 -7 7 0
-7 -4 -4 0
-7 -4 -8 0
-7 -4 7 0
-7 8 -4 0
-7 8 -8 0
-7 8 7 0
-7 -7 -4 0
-7 -7 -8 0
-7 -7 7 0
2 -2 -2 0
2 -2 -9 0
2 -2 20 0
2 9 -2 0
2 9 -9 0
2 9 20 0
2 -20 -2 0
2 -20 -9 0
2 -20 20 0
-9 -2 -2 0
-9 -2 -9 0
-9 -2 20 0
-9 9 -2 0
-9 9 -9 0
-9 9 20 0
-9 -20 -2 0
-9 -20 -9 0
-9 -20 20 0
-20 -2 -2 0
-20 -2 -9 0
-20 -2 20 0
-20 9 -2 0
-20 9 -9 0
-20 9 20 0
-20 -20 -2 0
-20 -20 -9 0
-20 -20 20 0
14 -14 -14 0
14 -14 -22 0
14 -14 13 0
14 22 -14 0
14 22 -22 0
14 22 13 0
14 -13 -14 0
14 -13 -22 0
14 -13 13 0
-22 -14 -14 0
-22 -14 -22 0
-22 -14 13 0
-22 22 -14 0
-22 22 -22 0
-22 22 13 0
-22 -13 -14 0
-22 -13 -22 0
-22 -13 13 0
-13 -14 -14 0
-13 -14 -22 0
-13 -14 13 0
-13 22 -14 0
-13 22 -22 0
-13 22 13 0
-13 -13 -14 0
-13 -13 -22 0
-13 -13 13 0
10 -10 -10 0
10 -10 -21 0
10 -10 18 0
10 21 -10 0
10 21 -21 0
10 21 18 0
10 -18 -10 0
10 -18 -21 0
10 -18 18 0
-21 -10 -10 0
-21 -10 -21 0
-21 -10 18 0
-21 21 -10 0
-21 21 -21 0
-21 21 18 0
-21 -18 -10 0
-21 -18 -21 0
-21 -18 18 0
-18 -10 -10 0
-18 -10 -21 0
-18 -10 18 0
-18 21 -10 0
-18 21 -21 0
-18 21 18 0
-18 -18 -10 0
-18 -18 -21 0
-18 -18 18 0
-5 -17 -7 0
-20 -13 -18 0
12 15 8 0
2 14 21 0
-12 -16 0
-19 -16 0
-4 -16 0
-2 -3 0
-22 -3 0
-10 -3 0
-12 -11 0
-19 -11 0
-4 -11 0
-2 -1 0
-22 -1 0
-10 -1 0
16 3 0
11 1 0
